NAME: PointSet_Angle_40_9
TYPE: TSP
COMMENT: Points chosen discrete uniformly at random out of ${0, \ldots, 500}^2$.
DIMENSION: 40
EDGE_WEIGHT_TYPE: EUC_2D
NODE_COORD_SECTION
1 486 218
2 225 440
3 115 325
4 399 61
5 59 117
6 429 220
7 26 457
8 135 493
9 458 348
10 317 140
11 463 485
12 317 17
13 152 375
14 282 29
15 122 315
16 394 108
17 32 365
18 294 147
19 190 440
20 455 496
21 56 383
22 216 82
23 340 97
24 321 43
25 445 137
26 183 154
27 369 246
28 418 20
29 120 200
30 296 489
31 14 189
32 343 293
33 301 384
34 441 237
35 323 395
36 232 379
37 24 448
38 207 110
39 45 274
40 400 236
EOF
